p cnf 1197 751
1 0
2 0
3 0
4 0
5 0
6 0
7 0
8 0
9 0
10 0
11 0
12 0
13 0
14 0
15 0
16 0
17 0
18 0
19 0
20 0
21 0
22 0
23 0
24 0
25 0
26 0
27 0
28 0
29 0
30 0
31 0
32 0
33 0
34 0
35 0
36 0
37 0
38 0
39 0
40 0
41 0
42 0
43 0
44 0
45 0
46 0
47 0
48 0
49 0
50 0
51 0
52 0
53 0
54 0
55 0
56 0
57 0
58 0
59 0
60 0
61 0
62 0
63 0
64 0
65 0
66 0
67 0
68 0
69 0
70 0
71 0
72 0
73 0
74 0
75 0
76 0
77 0
78 0
79 0
80 0
81 0
82 0
83 0
84 0
85 0
86 0
87 0
88 0
89 0
90 0
91 92 0
93 94 0
95 96 0
97 98 0
99 100 0
101 102 0
103 104 0
105 106 0
107 108 0
109 110 0
111 112 0
113 114 0
115 116 0
117 118 0
119 120 0
121 122 0
123 124 0
125 126 0
127 128 0
129 130 0
131 132 0
133 134 0
135 136 0
137 138 0
139 140 0
141 142 0
143 144 0
145 146 0
147 148 0
149 150 0
151 152 0
153 154 0
155 156 0
157 158 0
159 160 0
161 162 0
163 164 0
165 166 0
167 168 0
169 170 0
171 172 0
173 174 0
175 176 0
177 178 0
179 180 0
181 182 0
183 184 0
185 186 0
187 188 0
189 190 0
191 192 0
193 194 0
195 196 0
197 198 0
199 200 0
201 202 0
203 204 0
205 206 0
207 208 0
209 210 0
211 212 0
213 214 0
215 216 0
217 218 0
219 220 0
221 222 0
223 224 0
225 226 0
227 228 0
229 230 0
231 232 0
233 234 0
235 236 0
237 238 0
239 240 0
241 242 0
243 244 0
245 246 0
247 248 0
249 250 0
251 252 0
253 254 0
255 256 0
257 258 0
259 260 0
261 262 0
263 264 0
265 266 0
267 268 0
269 270 0
271 272 0
273 274 0
275 276 0
277 278 0
279 280 0
281 282 0
283 284 0
285 286 0
287 288 0
289 290 0
291 292 0
293 294 0
295 296 0
297 298 0
299 300 0
301 302 0
303 304 0
305 306 0
307 308 0
309 310 0
311 312 0
313 314 0
315 316 0
317 318 0
319 320 0
321 322 0
323 324 0
325 326 0
327 328 0
329 330 0
331 332 0
333 334 0
335 336 0
337 338 0
339 340 0
341 342 0
343 344 0
345 346 0
347 348 0
349 350 0
351 352 0
353 354 0
355 356 0
357 358 0
359 360 0
361 362 0
363 364 0
365 366 0
367 368 0
369 370 0
371 372 0
373 374 0
375 376 0
377 378 0
379 380 0
381 382 0
383 384 0
385 386 0
387 388 0
389 390 0
391 392 0
393 394 0
395 396 0
397 398 0
399 400 0
401 402 0
403 404 0
405 406 0
407 408 0
409 410 0
411 412 0
413 414 0
415 416 0
417 418 0
419 420 0
421 422 0
423 424 0
425 426 0
427 428 0
429 430 0
431 432 0
433 434 0
435 436 0
437 438 0
439 440 0
441 442 0
443 444 0
445 446 0
447 448 0
449 450 0
451 452 0
453 454 0
455 456 0
457 458 0
459 460 0
461 462 0
463 464 0
465 466 0
467 468 0
469 470 0
471 472 0
473 474 0
475 476 0
477 478 0
479 480 0
481 482 0
483 484 0
485 486 0
487 488 0
489 490 0
491 492 0
493 494 0
495 496 0
497 498 0
499 500 0
501 502 0
503 504 0
505 506 0
507 508 0
509 510 0
511 512 0
513 514 0
515 516 0
517 518 0
519 520 0
521 522 0
523 524 0
525 526 0
527 528 0
529 530 0
531 532 0
533 534 0
535 536 0
537 538 0
539 540 0
541 542 0
543 544 0
545 546 0
547 548 0
549 550 0
551 552 0
553 554 0
555 556 0
557 558 0
559 560 0
561 562 0
563 564 0
565 566 0
567 568 0
569 570 0
571 572 0
573 574 0
575 576 0
577 578 0
579 580 0
581 582 0
583 584 0
585 586 0
587 588 0
589 590 0
591 592 0
593 594 0
595 596 0
597 598 0
599 600 0
601 602 0
603 604 0
605 606 0
607 608 0
609 610 0
611 612 0
613 614 0
615 616 0
617 618 0
619 620 0
621 622 0
623 624 0
625 626 0
627 628 0
629 630 0
631 632 0
633 634 0
635 636 0
637 638 0
639 640 0
641 642 0
643 644 0
645 646 0
647 648 0
649 650 0
651 652 0
653 654 0
655 656 0
657 658 0
659 660 0
661 662 0
663 664 0
665 666 0
667 668 0
669 670 0
671 672 0
673 674 0
675 676 0
677 678 0
679 680 0
681 682 0
683 684 0
685 686 0
687 688 0
689 690 0
691 692 0
693 694 0
695 696 0
697 698 0
699 700 0
701 702 0
703 704 0
705 706 0
707 708 0
709 710 0
711 712 0
713 714 0
715 716 0
717 718 0
719 720 0
721 722 0
723 724 0
725 726 0
727 728 0
729 730 0
731 732 0
733 734 0
735 736 0
737 738 0
739 740 0
741 742 0
743 744 0
745 746 0
747 748 0
749 750 0
751 752 0
753 754 0
755 756 0
757 758 0
759 760 0
761 762 0
763 764 0
765 766 0
767 768 0
769 770 0
771 772 0
773 774 0
775 776 0
777 778 0
779 780 0
781 782 0
783 784 0
785 786 0
787 788 0
789 790 0
791 792 0
793 794 0
795 796 0
797 798 0
799 800 0
801 802 0
803 804 0
805 806 0
807 808 0
809 810 0
811 812 0
813 814 0
815 816 0
817 818 0
819 820 0
821 822 0
823 824 0
825 826 0
827 828 0
829 830 0
831 832 0
833 834 0
835 836 0
837 838 0
839 840 0
841 842 0
843 844 0
845 846 0
847 848 0
849 850 0
851 852 0
853 854 0
855 856 0
857 858 0
859 860 0
861 862 0
863 864 0
865 866 0
867 868 0
869 870 0
871 872 0
873 874 0
875 876 0
877 878 0
879 880 0
881 882 0
883 884 0
885 886 0
887 888 0
889 890 0
891 892 0
893 894 0
895 896 0
897 898 0
899 900 0
901 902 0
903 904 0
905 906 0
907 908 0
909 910 0
911 912 0
913 914 0
915 916 0
917 918 0
919 920 0
921 922 0
923 924 0
925 926 0
927 928 0
929 930 0
931 932 0
933 934 0
935 936 0
937 938 0
939 940 0
941 942 0
943 944 0
945 946 0
947 948 0
949 950 0
951 952 0
953 954 0
955 956 0
957 958 0
959 960 0
961 962 0
963 964 0
965 966 0
967 968 0
969 970 0
971 972 0
973 974 0
975 976 0
977 978 0
979 980 0
981 982 0
983 984 0
985 986 0
987 988 0
989 990 0
991 0
992 0
993 0
994 0
995 0
996 0
997 0
998 0
999 0
1000 0
1001 0
1002 0
1003 0
1004 0
1005 0
1006 0
1007 0
1008 0
1009 0
1010 0
1011 0
1012 0
1013 0
1014 0
1015 0
1016 0
1017 0
1018 0
1019 0
1020 0
1021 0
1022 0
1023 0
1024 0
1025 0
1026 0
1027 0
1028 0
1029 0
1030 0
1031 0
1032 0
1033 0
1034 0
1035 0
1036 0
1037 0
1038 0
1039 0
1040 0
1041 0
1042 0
1043 0
1044 0
1045 0
1046 0
1047 0
1048 0
1049 0
1050 0
1051 0
1052 0
1053 0
1054 0
1055 0
1056 0
1057 0
1058 0
1059 0
1060 0
1061 0
1062 0
1063 0
1064 0
1065 0
1066 0
1067 0
1068 0
1069 0
1070 0
1071 0
1072 0
1073 0
1074 0
1075 0
1076 0
1077 0
1078 0
1079 0
1080 0
1081 0
1082 0
1083 0
1084 0
1085 0
1086 0
1087 0
1088 0
1089 0
1090 0
1091 0
1092 0
1093 0
1094 0
1095 0
1096 0
1097 0
1098 0
1099 0
1100 0
1101 0
1102 0
1103 0
1104 0
1105 0
1106 0
1107 0
1108 0
1109 0
1110 0
1111 0
1112 0
1113 0
1114 0
1115 0
1116 0
1117 0
1118 0
1119 0
1120 0
1121 0
1122 0
1123 0
1124 0
1125 0
1126 0
1127 0
1128 0
1129 0
1130 0
1131 0
1132 0
1133 0
1134 0
1135 0
1136 0
1137 0
1138 0
1139 0
1140 0
1141 0
1142 0
1143 0
1144 0
1145 0
1146 0
1147 0
1148 0
1149 0
1150 0
1151 0
1152 0
1153 0
1154 0
1155 0
1156 0
1157 0
1158 0
1159 0
1160 0
1161 0
1162 0
1163 0
1164 0
1165 0
1166 0
1167 0
1168 0
1169 0
1170 0
1171 0
1172 0
1173 0
1174 0
1175 0
1176 0
1177 0
1178 0
1179 0
1180 0
1181 0
1182 0
1183 0
1184 0
1185 0
1186 0
1187 0
1188 0
1189 0
1190 0
-1191 -1192 0
-1193 -1190 0
-1191 -108 991 0
-1191 -124 1011 0
-1191 -138 1031 0
-1191 -150 1051 0
-1191 -160 1071 0
-1191 -168 1194 0
-1191 -174 1195 0
-1191 -178 1196 0
-1191 -180 1197 0
